50
99.0
0 49 35.16 0.61
1 48 35.65 0.63
2 47 34.62 0.61
3 46 35.52 0.59
4 45 36.62 0.62
5 44 36.2 0.59
6 43 35.4 0.59
7 42 36.45 0.6
8 41 35.41 0.61
9 40 36.9 0.59
10 39 33.18 0.6
11 38 34.5 0.6
12 37 35.0 0.58
13 36 35.14 0.6
14 35 36.51 0.62
15 34 34.21 0.56
16 33 40.33 0.6
17 32 36.88 0.6
18 31 38.1 0.52
19 30 38.07 0.62
20 29 37.24 0.61
21 28 38.5 0.61
22 27 36.26 0.59
23 26 34.88 0.61
24 25 37.12 0.59
25 24 36.54 0.58
26 23 36.74 0.57
27 22 35.0 0.61
28 21 34.86 0.59
29 20 31.65 0.64
30 19 34.79 0.59
31 18 34.33 0.58
32 17 36.94 0.59
33 16 32.94 0.63
34 15 30.33 0.57
35 14 35.07 0.6
36 13 39.77 0.6
37 12 36.42 0.6
38 11 35.27 0.58
39 10 37.7 0.56
40 9 33.44 0.57
41 8 39.0 0.6
42 7 35.14 0.59
43 6 29.0 0.61
44 5 41.8 0.61
45 4 40.0 0.57
46 3 33.0 0.59
47 2 37.0 0.54
48 1 31.0 0.57
